c nombre: 17
c densidad: 0.1
p edges 60 177
e 1 15
e 1 27
e 1 40
e 1 56
e 2 3
e 2 5
e 2 35
e 3 6
e 3 10
e 3 37
e 3 41
e 3 42
e 3 51
e 3 54
e 4 7
e 4 19
e 4 24
e 4 31
e 4 33
e 4 46
e 4 53
e 4 57
e 5 35
e 5 53
e 5 57
e 6 16
e 6 19
e 6 30
e 6 38
e 6 48
e 6 57
e 7 10
e 7 15
e 7 18
e 7 27
e 7 47
e 7 54
e 8 13
e 8 19
e 8 26
e 8 27
e 8 32
e 8 33
e 8 42
e 8 43
e 8 51
e 8 54
e 8 57
e 8 59
e 9 26
e 9 41
e 9 46
e 9 51
e 9 53
e 9 60
e 10 11
e 10 20
e 10 35
e 10 48
e 10 51
e 10 59
e 11 18
e 11 19
e 11 20
e 11 25
e 11 26
e 11 33
e 11 37
e 11 60
e 12 24
e 12 52
e 12 55
e 13 23
e 13 43
e 13 45
e 13 52
e 14 17
e 14 20
e 14 49
e 14 54
e 14 55
e 15 18
e 15 24
e 15 26
e 15 51
e 16 36
e 16 47
e 16 56
e 16 57
e 17 21
e 17 24
e 17 38
e 17 50
e 17 59
e 18 22
e 18 32
e 18 34
e 18 35
e 18 42
e 18 45
e 18 48
e 18 57
e 19 44
e 19 57
e 20 22
e 20 43
e 20 45
e 20 51
e 20 60
e 21 23
e 21 26
e 21 37
e 21 55
e 22 29
e 22 35
e 22 46
e 22 59
e 23 30
e 23 53
e 23 55
e 24 26
e 24 27
e 24 38
e 24 46
e 24 50
e 24 54
e 24 59
e 25 43
e 25 56
e 26 44
e 26 46
e 26 50
e 26 55
e 26 60
e 27 42
e 28 46
e 30 33
e 30 35
e 30 37
e 30 39
e 30 48
e 30 51
e 32 49
e 32 57
e 33 43
e 33 45
e 35 39
e 35 43
e 35 51
e 35 52
e 35 58
e 36 38
e 37 45
e 37 48
e 38 42
e 38 50
e 38 52
e 38 58
e 38 60
e 39 45
e 39 52
e 39 58
e 39 59
e 40 49
e 41 54
e 41 58
e 42 43
e 43 53
e 43 60
e 44 53
e 46 60
e 47 49
e 48 58
e 48 59
e 50 52
e 52 59
e 53 60
